p cnf 150 45
x 1 2 -7 9 12 -13 -14 -15 -16 -18 19 22 24 -25 26 27 28 29 -30 31 32 34 35 36 40 41 43 45 -47 48 51 53 -56 -58 -61 -64 -65 67 71 72 73 -75 -77 -79 -81 82 85 86 -87 88 91 -97 98 -102 -104 -107 -108 -109 -110 111 113 -115 116 -118 -119 120 -122 -124 -125 -128 130 132 133 134 135 136 137 -140 141 142 143 -144 -148 0
x 1 2 -5 6 8 -11 -12 14 17 -18 19 20 23 -24 -25 27 -28 -32 33 -35 -37 38 -39 -40 -42 -44 46 47 48 49 -54 -55 -67 -69 71 72 -75 77 -79 83 -85 -91 -92 94 95 -96 -97 99 100 101 102 -104 106 107 -108 109 110 111 112 114 -116 118 119 121 -123 127 129 133 135 -136 -139 140 -141 146 0
x 1 -3 -5 7 -8 9 -10 -13 -14 15 -16 17 -18 -21 22 24 28 -30 -31 -33 -35 37 -39 -42 49 -50 51 55 -56 -57 65 -66 -67 70 74 -76 77 78 80 82 84 -85 -86 88 91 -93 -95 -102 105 -106 108 -111 -113 114 -117 -119 -122 -124 125 -126 127 129 133 -134 135 137 -138 -139 142 -146 0
x -1 3 6 -9 10 -14 -15 17 18 20 -21 -24 -25 26 27 -29 -30 -31 33 36 38 -41 -42 -46 47 -51 -54 55 56 -58 60 -67 -68 69 73 75 76 78 -81 82 -83 85 88 90 -92 93 -94 96 -102 104 107 -108 -111 112 -113 -114 118 119 -120 -122 126 127 128 129 130 131 132 137 141 -142 144 -145 146 149 0
x -1 2 3 -4 -9 -13 -16 -17 18 -19 20 -21 -22 -24 25 -29 -30 34 -38 -40 -41 -45 -46 47 49 50 52 -53 55 -56 -59 60 62 66 -71 -73 74 75 -78 80 -81 -82 -86 88 -89 -90 91 92 -93 94 96 -99 102 105 -107 111 119 120 121 -122 125 126 -128 -129 130 -131 -132 135 -137 -138 141 144 -147 -148 150 0
x 3 5 -6 7 10 -12 -14 15 16 -17 -28 -34 35 36 -38 -41 -42 -43 -45 -49 -50 52 54 -55 56 -57 58 -60 63 -66 68 70 72 -73 74 -78 79 -81 84 -87 90 -92 95 96 99 100 -106 -107 -118 -121 -122 -124 126 127 128 -130 -134 -135 136 139 141 143 146 148 -149 0
x -1 3 4 5 9 -11 -12 15 -16 17 -18 20 21 -22 23 24 25 28 30 40 42 -43 -46 48 53 55 -56 57 -58 -59 -60 63 67 68 71 72 -75 -76 -78 79 -80 -81 83 85 86 87 88 -89 92 -94 -95 -98 -99 -103 -112 -117 -119 -122 -125 126 127 128 129 130 -133 -137 -138 140 141 -144 -146 147 148 150 0
x -1 5 -7 8 10 -13 -14 -16 17 -19 21 23 26 27 -28 31 34 -35 -36 39 41 42 43 45 47 48 -49 -54 -55 -56 -57 -58 62 -63 -64 65 68 -69 -70 -71 77 -78 -79 -83 87 -91 -95 -96 -98 -103 -108 -111 -113 114 115 116 -117 -118 119 -120 -121 -122 124 125 -126 -127 -129 130 131 -135 -137 138 -139 141 143 -144 -145 146 -149 0
x 1 -2 -3 -4 8 -10 11 13 14 15 -20 -21 -22 -26 28 29 33 37 -41 42 44 46 47 48 -51 52 53 54 55 56 58 61 62 -63 64 68 -69 -70 73 74 75 76 77 79 -80 -83 -84 87 88 90 92 94 97 100 101 -102 103 108 -110 116 118 -124 -126 -127 130 -131 132 134 136 -137 -138 -139 -141 144 -145 -146 -147 148 -150 0
x 1 -2 3 4 5 -7 -8 9 -11 -12 -13 16 -18 -22 -24 -26 -27 -29 30 -33 36 -37 39 40 -48 -50 -52 -53 54 -58 -59 61 -66 -68 71 -74 76 82 -83 84 -86 87 -88 -89 92 -93 94 99 -100 -103 104 105 108 -111 -112 113 -114 -116 -117 -119 120 121 125 -126 -128 -131 137 139 141 -142 -143 145 -147 148 -149 -150 0
x -1 4 -6 8 -9 10 -12 -14 -16 18 -19 20 -22 -26 -29 32 -35 -36 37 39 -42 44 45 46 -48 49 51 -56 59 -62 63 64 -65 67 68 69 -70 -73 82 83 -87 88 -92 -93 -95 97 -98 99 100 103 104 105 -107 -108 109 -112 -114 123 124 128 -129 131 133 134 -139 140 -144 -146 -147 148 -149 0
x -2 -3 -5 -6 -7 -8 -14 -16 -18 -19 20 -21 23 25 27 30 -31 -33 -35 36 -37 38 44 -45 -46 -48 -49 51 56 59 60 -62 -68 -70 -71 75 77 78 79 81 -84 -85 86 -89 -90 91 -93 96 -101 -105 106 -107 -109 112 -118 -120 -121 -124 -125 -126 127 131 -132 -135 136 -137 -142 -145 146 -147 -150 0
x 2 3 -4 -7 9 10 -14 -15 -18 -19 -22 -25 26 27 29 31 -34 -37 40 -41 45 46 -47 48 50 -51 53 54 55 -56 -59 -60 -66 -68 69 -71 -76 78 -79 80 81 -82 83 84 -87 -88 90 -93 -95 -97 100 104 -105 -111 114 -116 119 -122 -123 -125 126 127 -128 129 -131 -132 135 -136 -139 -141 -143 145 -147 -148 149 150 0
x -2 7 8 -9 10 -11 -12 -13 16 17 -20 22 -23 24 -25 -31 32 -35 38 40 41 42 -45 46 -49 -50 51 -53 -54 -55 56 58 -59 60 61 65 66 -67 -69 -70 72 -73 74 77 79 -80 81 -82 83 84 -85 88 -89 -90 -94 -95 -98 -100 -101 -105 -106 107 -108 109 -112 114 115 -116 -117 -121 125 -126 -129 -131 133 -135 136 138 140 142 -143 144 145 148 -150 0
x -2 -3 -6 8 -9 -11 12 17 -18 21 22 24 -25 27 -28 -29 -30 33 36 37 38 -39 -44 46 47 -59 63 -66 67 -69 -71 73 74 -75 -76 79 -81 88 89 -90 92 94 95 99 -103 105 107 108 -111 114 116 119 121 -125 -127 -130 131 132 -142 -144 145 -148 0
x -3 -4 5 6 -7 -8 -9 -10 -11 -12 14 -17 18 -19 -20 24 25 -26 -27 -28 29 31 32 -36 -38 39 40 41 -46 47 48 51 53 -54 56 57 -58 -60 -63 64 65 66 -71 -73 -74 75 77 -78 80 -81 84 -85 -86 -88 -89 -90 -91 -92 94 -96 -99 -101 -102 105 108 109 -114 116 -117 -119 120 -123 -128 130 131 132 -134 135 137 -139 140 141 143 -148 149 0
x -2 4 6 -11 14 16 -17 18 -21 -22 23 -24 -26 31 -33 -35 -39 42 -43 46 -47 -52 -53 -56 58 63 64 -67 -69 74 -76 -77 -80 82 -85 86 88 -90 91 -93 -95 -96 100 101 102 -103 -110 -111 112 -115 116 118 -119 -121 -122 -124 128 -129 -130 131 -132 136 139 143 144 146 -148 -150 0
x 1 -2 -9 -12 -13 -14 15 16 -17 -18 -24 28 -29 -30 31 -32 -33 34 -35 36 37 -39 42 -50 -51 -53 -54 -55 56 -57 -59 -60 -62 -66 67 70 -73 -78 -82 -84 85 86 90 -92 -93 98 -102 105 -106 107 113 114 115 116 -118 120 -122 -124 -125 -126 -127 -129 131 132 -133 -135 -136 138 -139 -145 146 -147 -150 0
x 1 -2 3 -5 6 8 11 -12 13 -16 -17 -19 20 -22 -27 -28 29 30 31 -32 -36 43 -44 -47 48 49 50 52 -53 54 -55 58 60 -61 65 -66 67 68 71 -75 -76 80 -81 84 85 -87 -88 89 -92 93 94 -95 -96 -97 -98 102 103 -106 108 110 111 112 -113 -115 118 -119 -121 -122 -124 126 -127 129 -130 -132 136 138 -139 -141 145 147 0
x 7 10 12 20 21 -23 -26 -30 31 35 36 -38 42 46 47 50 -52 -54 58 59 60 -61 63 -69 72 -77 80 -82 84 -86 87 88 89 -95 98 99 100 101 106 -107 110 -111 112 118 -119 -120 -123 126 -128 130 -132 -133 -134 136 137 -141 -142 145 -147 148 149 150 0
x -1 9 10 12 -18 -20 -24 25 -27 33 35 36 -37 38 41 -43 -49 -52 -54 -57 59 -62 -63 -64 65 -66 -67 -68 -73 74 75 76 -77 78 -80 -82 -85 -87 -88 -90 91 -94 -96 100 -101 -103 -104 -105 -107 -111 -113 -114 -115 119 -120 -121 122 123 124 -125 -126 -127 -128 -129 -130 132 -134 -135 142 145 148 149 0
x 1 -2 4 6 -7 8 11 12 13 14 20 -21 -25 26 27 28 -30 31 -33 -37 39 -40 41 -42 43 -44 45 49 -51 52 -54 56 58 59 62 -63 64 -65 66 -67 -71 73 80 -82 83 -86 -88 92 93 94 96 -98 102 -105 106 -107 108 -110 111 -113 115 116 -119 121 -122 -123 -127 129 131 -133 135 -136 140 -142 -149 150 0
x -2 -4 -7 -8 -10 14 16 19 -21 -22 -23 25 28 36 -41 42 -43 47 53 -54 -55 56 -58 -61 -63 -69 70 -71 -74 -76 78 -79 84 86 -89 97 -98 99 -100 -102 -107 108 110 -113 -116 119 -120 124 125 127 128 -129 -130 -131 -132 133 -135 137 -138 -140 -145 -146 -148 149 0
x -1 2 -3 4 -5 6 -8 12 15 -19 -27 -29 31 -33 -34 -35 37 39 -40 41 -42 43 44 45 -46 -47 -48 -50 -53 54 -55 56 -57 -59 -62 66 70 -71 74 -76 77 83 84 -89 90 93 94 -97 98 -101 102 105 -106 -107 -108 112 -113 116 117 118 -119 120 121 122 -124 125 -126 -128 -129 130 -133 -135 -136 137 -140 141 -143 145 146 149 0
x -1 -3 -4 -5 10 11 12 -15 -19 -21 -22 23 24 25 26 -30 -31 -34 35 -42 -43 48 -54 -57 59 -60 62 63 64 -65 67 -68 -71 74 -75 -80 -82 -83 -92 -93 -94 -95 98 99 102 103 -104 -107 108 -109 110 111 -112 -116 118 -120 122 123 -124 -125 127 131 133 -135 138 -140 -143 144 -147 -148 149 0
x 1 2 3 -4 8 9 10 -11 -13 -14 17 -19 20 -21 -22 25 -26 -27 -28 29 -30 31 -32 33 -35 37 -40 -42 -46 47 -48 -54 -55 -56 -58 -61 -67 69 -70 71 -72 -76 78 -80 -81 -82 83 86 -90 95 -96 99 100 101 102 -103 -105 -106 107 -110 -111 113 -115 116 -117 -123 124 133 -134 135 136 137 -141 -142 144 -146 147 -148 -149 -150 0
x 1 4 -6 -8 -9 11 13 -14 15 -18 -20 -22 24 -25 30 31 -32 36 38 40 41 43 -45 -48 49 50 53 54 -59 -60 -61 -65 -66 -67 -70 -73 -74 78 79 81 82 83 84 85 87 90 -93 98 99 -102 -103 -104 105 106 108 -109 114 -115 -119 121 122 124 125 126 -129 -136 137 -138 139 140 -142 144 -145 147 -149 150 0
x 1 3 5 6 10 -13 -15 16 17 -18 19 20 -24 -25 26 28 -29 -30 31 -32 -36 42 44 45 -48 52 -55 -56 -58 59 -60 -62 -64 66 -68 -69 -73 -76 -79 80 -82 -83 -84 85 88 -90 91 -92 93 -95 -97 99 100 104 106 107 108 109 110 111 -112 115 -116 117 119 122 123 -124 125 -128 -129 -130 -131 133 -134 135 136 -137 -140 141 142 144 146 -147 149 0
x 1 -3 -7 -9 10 11 -12 -14 16 -18 21 22 26 -27 28 29 -33 -35 -36 37 -44 45 48 52 -53 56 57 -60 -62 63 -66 -67 -71 -72 73 75 76 -77 81 -83 -85 -86 -87 -89 92 -94 95 96 -97 -99 -100 -101 103 -105 109 110 112 -117 119 -121 123 124 -130 -132 133 -134 -137 -139 -141 -143 -144 145 -146 147 0
x 1 2 -3 6 9 10 11 -12 -15 17 20 21 -22 24 -25 26 -29 30 -31 -32 34 35 39 -42 -43 46 53 -58 -59 -61 63 66 -67 68 70 -72 73 75 -77 78 -80 81 82 84 -85 -86 -87 -88 89 -90 -91 -92 -93 -94 -99 -100 105 106 108 -109 110 111 113 -114 -118 -120 122 128 -130 -132 133 -135 -138 -139 -144 145 146 147 -148 149 -150 0
x 5 6 -8 9 -15 -17 20 23 24 -25 26 -27 30 -33 -36 -38 -39 40 42 -45 46 -48 50 -53 55 -57 61 -62 -68 -70 71 -72 73 81 -82 84 86 -90 96 97 -98 -99 -101 -102 -110 -112 -118 -120 -121 122 -123 -125 128 129 -130 -132 134 -135 136 137 140 141 -143 147 0
x 1 5 -6 -9 11 17 18 19 20 -21 -22 24 27 -28 29 -34 -35 -36 -38 39 -40 42 -43 49 51 56 61 -62 -64 65 66 -67 -68 -70 -72 76 -78 80 86 87 89 97 98 100 -101 103 -105 -106 107 -108 111 -115 -116 117 119 120 121 124 -127 131 134 -137 -141 -144 -145 -148 150 0
x 1 -6 -9 -10 -11 22 24 27 28 29 30 -31 -32 37 -39 -41 -44 -45 46 -50 -51 53 56 57 -59 63 64 -65 66 71 -76 -78 -79 80 81 -87 -88 91 92 95 -97 98 100 101 102 103 104 -106 107 -108 110 113 114 119 124 -125 -126 -127 -128 129 130 -131 132 -134 -135 136 142 -143 144 -146 -149 0
x -2 -4 -6 9 -14 17 -18 19 20 21 26 27 28 29 -33 35 39 40 42 43 44 -46 -47 -51 52 53 54 57 59 60 -62 -65 -66 67 72 -73 78 79 81 83 -86 88 -90 -92 97 -99 100 -105 -106 -111 113 -114 -115 -120 121 -122 -123 125 128 130 -131 138 -139 -140 142 -143 144 146 147 149 -150 0
x -1 -2 -3 6 -10 11 13 -15 17 19 21 -22 23 26 -29 30 31 -32 -33 40 -41 -42 43 44 -46 -48 50 -51 -52 55 -56 59 -60 61 62 -68 -70 72 74 -75 -76 77 -78 79 -80 82 -83 84 -89 93 95 -99 101 -104 105 106 107 -108 110 114 115 118 119 122 -124 127 128 -129 130 131 -136 137 -140 141 142 143 146 0
x -1 -3 4 -5 11 12 -18 -19 -21 -26 -27 -29 32 -36 39 41 -42 -45 -50 52 -56 -57 58 -59 61 65 -66 67 -68 69 -71 76 77 -78 -81 83 85 86 87 -89 -90 -91 92 93 94 95 96 -97 101 104 -105 107 -108 -109 110 114 -115 117 -118 -119 -120 -123 -128 -129 -130 -131 -132 135 136 -137 138 -139 140 141 142 -143 144 145 147 149 150 0
x 2 -4 8 9 -10 -11 12 -13 -14 -15 -16 17 19 -24 30 31 -32 -33 -35 37 -38 -40 41 42 44 46 -47 48 -49 -52 54 55 57 -58 -67 68 72 -73 -74 -76 -80 81 -82 83 90 92 95 96 -97 -99 101 103 -104 -106 -108 -109 110 -112 114 -118 120 121 -122 123 -126 -128 -129 132 -133 -134 136 -137 -140 -141 142 -145 -147 148 150 0
x -1 -2 -4 5 -6 7 11 15 17 -19 -20 23 26 27 28 -30 31 -33 -35 -36 40 41 -42 43 45 -49 -50 -51 52 53 -55 57 -59 -60 -62 -63 65 -66 68 70 -75 76 80 81 -82 -89 92 94 95 97 99 100 -101 102 -108 -109 -110 -111 112 -113 -116 117 -118 122 123 -124 125 -127 130 131 133 -134 -135 136 141 -144 -147 149 -150 0
x 2 5 8 -9 -10 -14 -15 18 -23 25 26 27 28 -32 -33 34 -35 -38 -40 41 43 44 -51 52 -56 60 63 -64 -65 74 -76 78 79 81 -82 -86 87 -89 -92 93 94 -95 -96 -97 98 101 -103 -104 -106 -107 -109 110 111 112 113 114 -115 118 119 120 -122 123 124 125 -129 130 -131 132 133 -135 -136 -138 -140 143 144 -145 146 -147 148 149 -150 0
x 3 -7 9 10 -14 -15 16 17 -18 -21 -26 28 29 -32 33 -38 39 42 -45 46 47 48 -54 55 -57 58 61 -62 65 68 -71 73 -76 77 -78 79 -81 -82 90 -91 93 95 -97 -98 -101 -103 -106 -108 -109 110 111 113 114 115 -117 118 124 126 127 128 130 -131 137 -138 146 -147 -150 0
x 1 2 -5 -6 7 -9 -11 -12 13 -15 16 17 18 19 -20 22 23 27 28 -31 -32 35 38 -39 -42 43 -46 -47 -48 -55 56 -63 65 67 70 -72 -75 76 80 -81 82 85 -87 88 -89 90 -93 95 96 97 99 101 -104 105 -106 107 110 111 -115 -116 -118 119 123 124 125 -126 128 -129 -132 133 134 140 141 -146 147 148 -149 0
x -5 6 7 11 16 17 -20 24 -26 -28 -29 -30 31 -32 34 -35 -36 37 39 42 44 46 -47 -51 -52 -54 -57 -60 -61 64 -65 -68 73 76 -78 79 -80 81 84 86 -89 90 -91 92 -95 96 97 98 101 -102 -105 -108 -110 -113 -114 -115 116 117 -119 123 124 125 126 -128 -129 -130 131 -133 -138 -139 140 141 -143 145 147 -148 -149 0
x 2 -3 -6 10 -12 -15 -17 21 -22 26 28 -29 30 33 38 39 -40 -42 -45 -48 -49 50 -52 54 59 -62 63 71 -72 73 -74 -80 81 -84 -85 -86 -87 -88 89 -91 -98 -100 102 -104 -106 108 -112 -113 -117 118 -119 120 -126 -127 -131 134 -138 -141 -142 -147 150 0
x -1 2 -5 -7 -8 10 11 -12 13 14 16 -17 18 -19 -22 26 30 34 -37 -38 39 -40 41 42 -46 48 -49 50 51 -53 54 -55 56 57 -58 -59 -62 63 -64 68 71 75 77 -86 87 90 91 94 96 -97 -104 106 107 109 114 115 116 117 119 -120 122 126 128 129 -131 -132 133 -140 145 -146 -150 0
x 1 -2 -3 -4 -5 6 7 -8 -9 -11 -12 -14 15 19 20 -21 -23 24 26 28 -31 32 -34 35 36 -37 -38 -40 44 -49 53 -55 56 57 58 -59 -61 -62 -63 -65 66 -68 -69 -75 -76 -78 81 -82 -83 84 85 88 -89 -90 -94 96 97 -98 -101 103 -104 105 106 110 -112 114 116 -119 120 125 127 133 134 135 -136 -139 140 -141 144 -145 -147 148 149 0
g -30